70
61 41
30 91
63 91
43 33
73 87
45 21
19 100
38 53
72 24
21 56
48 54
12 16
72 4
61 86
75 32
44 66
82 27
5 50
77 41
26 37
44 36
96 13
74 29
36 52
12 71
84 81
30 75
43 69
7 2
85 15
3 2
80 21
67 30
63 92
53 40
70 77
87 69
97 75
53 53
80 25
30 80
89 4
32 10
67 24
86 59
69 96
48 56
24 45
14 28
57 4
85 9
65 38
35 49
82 70
8 73
82 34
39 89
60 48
81 78
21 44
29 37
97 29
47 88
11 2
3 76
39 15
34 74
38 73
38 54
4 4
